n_res = 4;
rc = [ 18, 18, 22, 18 ];
n_tasks = 30;
d = [ 2, 4, 3, 2, 6, 4, 6, 10, 10, 5, 8, 3, 1, 7, 2, 9, 7, 6, 5, 4, 4, 3, 7, 5, 9, 7, 7, 5, 5, 2 ];
rr = [| 5, 5, 3, 0, 6, 4, 10, 7, 1, 7, 4, 0, 4, 6, 2, 2, 10, 2, 0, 0, 9, 3, 7, 1, 0, 7, 9, 2, 4, 3
      | 10, 10, 1, 9, 7, 0, 5, 4, 0, 0, 0, 10, 1, 0, 6, 0, 6, 0, 6, 9, 1, 7, 8, 0, 0, 9, 1, 3, 4, 6
      | 0, 10, 1, 9, 8, 0, 4, 7, 1, 3, 9, 8, 9, 10, 0, 1, 2, 8, 3, 10, 0, 8, 3, 0, 5, 0, 7, 8, 9, 7
      | 10, 7, 4, 0, 8, 3, 1, 0, 3, 0, 8, 3, 0, 1, 6, 8, 6, 7, 0, 0, 0, 0, 0, 4, 2, 9, 7, 10, 6, 7 |];
suc = [ { 2 }, 
        { 3 }, 
        { 4 }, 
        { 5 }, 
        { 6 }, 
        { 7 }, 
        { 8 }, 
        { 9 }, 
        { 10 }, 
        { 11 }, 
        { 12 }, 
        { 13 }, 
        { 14 }, 
        { 15 }, 
        { 16 }, 
        { 17 }, 
        { 18 }, 
        { 19 }, 
        { 20 }, 
        { 21 }, 
        { 22 }, 
        { 23 }, 
        { 24 }, 
        { 25 }, 
        { 26 }, 
        { 27 }, 
        { 28 }, 
        { 29 }, 
        { 30 }, 
        {  }]; 
